NAME: random_20_8
TYPE: TSP
COMMENT: random_20_8
DIMENSION: 20
EDGE_WEIGHT_TYPE: EUC_2D
NODE_COORD_SECTION
1 352 145
2 491 1
3 212 481
4 123 413
5 296 228
6 496 354
7 70 332
8 479 324
9 152 142
10 277 197
11 297 304
12 403 484
13 0 350
14 160 324
15 273 340
16 237 102
17 214 464
18 363 23
19 6 161
20 270 321
